TME_4/Ex01-pulp.lp
\* Ex01 *\
Minimize
OBJ: z_1 + z_10 + z_11 + z_12 + z_13 + z_14 + z_15 + z_16 + z_17 + z_2 + z_3
 + z_4 + z_5 + z_6 + z_7 + z_8 + z_9
Subject To
_C1: a + 17.3 b + z_1 >= 327.4
_C10: - a - 5 b + z_5 >= -92.5
_C11: a + 56.9 b + z_6 >= 926.7
_C12: - a - 56.9 b + z_6 >= -926.7
_C13: a + 79.7 b + z_7 >= 2186.3
_C14: - a - 79.7 b + z_7 >= -2186.3
_C15: a + 3.5 b + z_8 >= 96.8
_C16: - a - 3.5 b + z_8 >= -96.8
_C17: a + 57.8 b + z_9 >= 523.9
_C18: - a - 57.8 b + z_9 >= -523.9
_C19: a + 124 b + z_10 >= 935.9
_C2: - a - 17.3 b + z_1 >= -327.4
_C20: - a - 124 b + z_10 >= -935.9
_C21: a + 15.1 b + z_11 >= 444.2
_C22: - a - 15.1 b + z_11 >= -444.2
_C23: a + 4.3 b + z_12 >= 119.7
_C24: - a - 4.3 b + z_12 >= -119.7
_C25: a + 39 b + z_13 >= 300.7
_C26: - a - 39 b + z_13 >= -300.7
_C27: a + 8.7 b + z_14 >= 201.9
_C28: - a - 8.7 b + z_14 >= -201.9
_C29: a + 6.9 b + z_15 >= 194.7
_C3: a + 7.7 b + z_2 >= 179.5
_C30: - a - 6.9 b + z_15 >= -194.7
_C31: a + 57.7 b + z_16 >= 1592.9
_C32: - a - 57.7 b + z_16 >= -1592.9
_C33: a + 252.7 b + z_17 >= 5142.2
_C34: - a - 252.7 b + z_17 >= -5142.2
_C4: - a - 7.7 b + z_2 >= -179.5
_C5: a + 10.4 b + z_3 >= 279.4
_C6: - a - 10.4 b + z_3 >= -279.4
_C7: a + 5.1 b + z_4 >= 139.1
_C8: - a - 5.1 b + z_4 >= -139.1
_C9: a + 5 b + z_5 >= 92.5
End
