TME_4/Ex01-pulp.sol
Problem:    
Rows:       34
Columns:    19
Non-zeros:  102
Status:     OPTIMAL
Objective:  OBJ = 4271.542135 (MINimum)

   No.   Row name   St   Activity     Lower bound   Upper bound    Marginal
------ ------------ -- ------------- ------------- ------------- -------------
     1 _C1          B            425         327.4               
     2 _C10         NL         -92.5         -92.5                           1 
     3 _C11         B        1429.21         926.7               
     4 _C12         NL        -926.7        -926.7                           1 
     5 _C13         NL        2186.3        2186.3                           1 
     6 _C14         B       -1092.85       -2186.3               
     7 _C15         NL          96.8          96.8                    0.731742 
     8 _C16         NL         -96.8         -96.8                    0.268258 
     9 _C17         B        1868.46         523.9               
    10 _C18         NL        -523.9        -523.9                           1 
    11 _C19         B        4137.08         935.9               
    12 _C2          NL        -327.4        -327.4                           1 
    13 _C20         NL        -935.9        -935.9                           1 
    14 _C21         NL         444.2         444.2                           1 
    15 _C22         B       -219.116        -444.2               
    16 _C23         NL         119.7         119.7                           1 
    17 _C24         B       -106.294        -119.7               
    18 _C25         B        1330.39         300.7               
    19 _C26         NL        -300.7        -300.7                           1 
    20 _C27         B        202.262         201.9               
    21 _C28         NL        -201.9        -201.9                           1 
    22 _C29         NL         194.7         194.7                           1 
    23 _C3          B         184.17         179.5               
    24 _C30         B       -136.575        -194.7               
    25 _C31         NL        1592.9        1592.9                           1 
    26 _C32         B       -795.409       -1592.9               
    27 _C33         NL        5142.2        5142.2                    0.536517 
    28 _C34         B        -5142.2       -5142.2               
    29 _C4          NL        -179.5        -179.5                           1 
    30 _C5          NL         279.4         279.4                           1 
    31 _C6          B         -193.6        -279.4               
    32 _C7          NL         139.1         139.1                           1 
    33 _C8          B       -119.288        -139.1               
    34 _C9          B        161.839          92.5               

   No. Column name  St   Activity     Lower bound   Upper bound    Marginal
------ ------------ -- ------------- ------------- ------------- -------------
     1 z_1          B        48.8002             0               
     2 z_10         B        1600.59             0               
     3 z_11         B        112.542             0               
     4 z_12         B        6.70289             0               
     5 z_13         B        514.847             0               
     6 z_14         B        0.18122             0               
     7 z_15         B        29.0623             0               
     8 z_16         B        398.746             0               
     9 z_17         NL             0             0                    0.463483 
    10 z_2          B        2.33483             0               
    11 z_3          B        42.8999             0               
    12 z_4          B        9.90578             0               
    13 z_5          B        34.6696             0               
    14 z_6          B        251.257             0               
    15 z_7          B        546.725             0               
    16 z_8          B              0             0               
    17 z_9          B        672.279             0               
    18 a            B        25.9376             0               
    19 b            B        20.2464             0               

Karush-Kuhn-Tucker optimality conditions:

KKT.PE: max.abs.err = 1.82e-12 on row 27
        max.rel.err = 2.10e-16 on row 21
        High quality

KKT.PB: max.abs.err = 0.00e+00 on row 0
        max.rel.err = 0.00e+00 on row 0
        High quality

KKT.DE: max.abs.err = 1.14e-13 on column 19
        max.rel.err = 2.44e-15 on column 6
        High quality

KKT.DB: max.abs.err = 0.00e+00 on row 0
        max.rel.err = 0.00e+00 on row 0
        High quality

End of output
